10,1,5,1,4,1,5,3,1,3,2,3,3,10,8,10,6,10,9,9,7,10;10,2,5,2,3,9,7,9,8,9,6,9,2,10,9,10,1,10;4,2,9,3,7,8,4,4,3,8,5,8,8,8,6,8,2,8,1,8;6,3,7,6,4,3,3,7,10,4,5,7,8,7,9,6,1,7,2,9;10,3,3,5,7,7,5,5,9,4,8,5,6,6,4,6,10,5,2,6,1,9;7,5,5,4,3,6,6,5,9,5,8,6,1,6,2,5,4,7,10,6;7,3,3,4,8,4,5,6,4,5,6,7,9,7,2,7,10,7;6,1,3,3,7,4,6,4,8,3,1,4,1,5,2,4,5,10,9,8,4,8,10,8;7,1,6,2,9,2,8,2,1,2,2,1,5,9,4,9,10,9;3,1,3,2,7,2,9,1,8,1,1,1,2,2,4,10,10,10;
